
        $ From http://www.csplib.org/Problems/prob009/data/helmut.pdf
        $ Problem number 4
        $ Sequence length : 22
        language ESSENCE' 1.0
        letting sizemaster be 139
        letting sizes be sequence(1,2,3,4,7,8,10,17,18,20,21,22,24,27,28,29,30,31,32,38,59,80)
        